Route #1: 51 16 63 23 56 49 24 3 44 17
Route #2: 6 33 73 1 43 41 42 64 22 62
Route #3: 30 48 47 21 61 28 74 2 68
Route #4: 45 29 5 36 69 71 60 70 20 37 15 57 52
Route #5: 67 8 46 34 4 75
Route #6: 26 7 35 53 14 59 19 54 13 27
Route #7: 11 66 65 38 10 31 72 58
Route #8: 12 39 9 25 55 18 50 32 40
Cost 738
Time 0.14172
